c Random CNF formula
p cnf 10 43
-6 3 -1 -2 9 0
-2 -10 -5 3 -4 0
-2 10 -5 7 -4 0
10 -7 4 2 -9 0
5 -7 6 -2 -4 0
-6 4 -1 -8 -2 0
-2 -4 7 -1 -8 0
-4 -3 2 -8 6 0
9 5 -7 -6 1 0
-5 -1 6 3 10 0
4 -3 6 -8 -9 0
-6 -3 -10 2 -4 0
3 4 -10 -2 -8 0
4 -10 -5 2 -3 0
4 -7 6 5 -1 0
7 -1 4 8 -3 0
-7 2 4 -10 9 0
3 8 -5 -2 10 0
4 -9 -2 8 -5 0
4 -8 5 9 -6 0
10 5 7 4 3 0
-10 -6 5 -1 2 0
2 10 -3 4 1 0
5 -3 6 -9 2 0
10 -1 7 -6 8 0
9 2 5 10 1 0
-2 -10 7 -9 -5 0
3 -8 1 7 -4 0
-9 2 -10 -5 1 0
10 7 -2 3 8 0
3 5 -6 10 -7 0
10 2 3 5 -6 0
-7 -2 10 -8 6 0
-6 8 -9 5 -10 0
7 3 5 -2 -4 0
7 5 -8 1 3 0
2 4 -10 -7 -5 0
9 4 10 6 -8 0
3 -8 -7 2 -4 0
1 10 8 6 5 0
5 4 -10 -7 2 0
-5 9 -4 -7 1 0
-3 -4 7 -10 -2 0
